cases/matpower/case5_uc.m
ipopt
SOCW
[warn | PowerModels]: reversing the orientation of branch 6 (4, 3) to be consistent with other parallel branches
[warn | PowerModels]: the voltage setpoint on generator 4 does not match the value at bus 4
[warn | PowerModels]: the voltage setpoint on generator 1 does not match the value at bus 1
[warn | PowerModels]: the voltage setpoint on generator 5 does not match the value at bus 10
[warn | PowerModels]: the voltage setpoint on generator 2 does not match the value at bus 1
[warn | PowerModels]: the voltage setpoint on generator 3 does not match the value at bus 3
[info | PowerModels]: removing 1 cost terms from generator 4: [4000.0, 0.0]
[info | PowerModels]: removing 1 cost terms from generator 1: [1400.0, 0.0]
[info | PowerModels]: removing 1 cost terms from generator 5: [1000.0, 0.0]
[info | PowerModels]: removing 1 cost terms from generator 2: [1500.0, 0.0]
[info | PowerModels]: removing 1 cost terms from generator 3: [3000.0, 0.0]

******************************************************************************
This program contains Ipopt, a library for large-scale nonlinear optimization.
 Ipopt is released as open source code under the Eclipse Public License (EPL).
         For more information visit http://projects.coin-or.org/Ipopt
******************************************************************************

This is Ipopt version 3.13.2, running with linear solver mumps.
NOTE: Other linear solvers might be more efficient (see Ipopt documentation).

Number of nonzeros in equality constraint Jacobian...:      150
Number of nonzeros in inequality constraint Jacobian.:      112
Number of nonzeros in Lagrangian Hessian.............:       46

Total number of variables............................:       55
                     variables with only lower bounds:        0
                variables with lower and upper bounds:       55
                     variables with only upper bounds:        0
Total number of equality constraints.................:       38
Total number of inequality constraints...............:       44
        inequality constraints with only lower bounds:       18
   inequality constraints with lower and upper bounds:        0
        inequality constraints with only upper bounds:       26

iter    objective    inf_pr   inf_du lg(mu)  ||d||  lg(rg) alpha_du alpha_pr  ls
   0  4.1005999e+03 3.00e+00 2.94e+01  -1.0 0.00e+00    -  0.00e+00 0.00e+00   0
   1  4.5650573e+03 2.86e+00 2.57e+01  -1.0 1.15e+01    -  7.46e-03 4.50e-02h  1
   2  4.5294143e+03 2.83e+00 2.37e+01  -1.0 8.54e+00    -  5.11e-02 1.36e-02f  1
   3  4.8505106e+03 2.70e+00 5.18e+01  -1.0 6.17e+00    -  1.50e-01 4.30e-02h  1
   4  5.9161932e+03 2.36e+00 1.32e+02  -1.0 6.29e+00    -  4.36e-01 1.28e-01h  1
   5  7.1066725e+03 1.99e+00 1.21e+02  -1.0 5.77e+00    -  2.09e-01 1.56e-01h  1
   6  1.0041200e+04 1.13e+00 7.89e+01  -1.0 6.61e+00    -  5.06e-01 4.33e-01H  1
   7  1.2062136e+04 5.46e-01 1.01e+02  -1.0 1.36e+01    -  9.13e-01 5.16e-01h  1
   8  1.3056180e+04 3.38e-01 6.15e+01  -1.0 6.18e+00    -  5.60e-01 3.81e-01h  1
   9  1.3087949e+04 3.31e-01 4.96e+02  -1.0 3.95e+00    -  4.78e-01 2.11e-02h  1
iter    objective    inf_pr   inf_du lg(mu)  ||d||  lg(rg) alpha_du alpha_pr  ls
  10  1.4214167e+04 2.03e-01 7.13e+01  -1.0 1.82e+00    -  5.40e-03 3.85e-01h  1
  11  1.6120941e+04 1.62e-14 1.22e+01  -1.0 1.20e+00    -  1.00e+00 1.00e+00h  1
  12  1.6120309e+04 1.78e-14 4.86e-01  -1.0 6.23e-01    -  1.00e+00 1.00e+00h  1
  13  1.6082167e+04 4.77e-14 1.21e+00  -1.7 5.65e-01    -  1.00e+00 1.00e+00f  1
  14  1.6076288e+04 5.05e-14 1.87e+00  -1.7 4.38e-01    -  1.00e+00 1.00e+00h  1
  15  1.6076601e+04 6.71e-14 3.13e-04  -1.7 1.07e-02    -  1.00e+00 1.00e+00h  1
  16  1.6062855e+04 2.48e-05 2.70e+00  -3.8 5.19e-01    -  8.92e-01 1.00e+00f  1
  17  1.6062163e+04 1.33e-05 2.37e+00  -3.8 3.76e-01    -  1.00e+00 4.88e-01h  1
  18  1.6061678e+04 6.14e-03 1.01e-01  -3.8 2.22e-01    -  1.00e+00 9.45e-01h  1
  19  1.6061766e+04 1.70e-14 2.15e-01  -3.8 6.72e-02    -  5.65e-01 1.00e+00h  1
iter    objective    inf_pr   inf_du lg(mu)  ||d||  lg(rg) alpha_du alpha_pr  ls
  20  1.6061770e+04 2.38e-14 1.25e-04  -3.8 8.19e-03    -  1.00e+00 1.00e+00h  1
  21  1.6061692e+04 5.27e-05 4.08e-02  -5.7 3.89e-02    -  1.00e+00 8.54e-01h  1
  22  1.6061682e+04 1.06e-08 6.26e-05  -5.7 2.08e-02    -  1.00e+00 1.00e+00h  1
  23  1.6061682e+04 1.71e-14 2.77e-06  -5.7 8.25e-03    -  1.00e+00 1.00e+00h  1
  24  1.6061682e+04 2.51e-14 2.84e-07  -5.7 2.09e-03    -  1.00e+00 1.00e+00h  1
  25  1.6061681e+04 1.74e-07 1.70e-04  -8.6 3.16e-03    -  1.00e+00 9.92e-01h  1
  26  1.6061681e+04 5.23e-11 1.10e-07  -8.6 1.30e-03    -  1.00e+00 1.00e+00h  1
  27  1.6061681e+04 4.91e-12 1.50e-08  -8.6 6.36e-04    -  1.00e+00 1.00e+00h  1
  28  1.6061681e+04 2.14e-14 6.17e-10  -8.6 9.77e-05    -  1.00e+00 1.00e+00h  1

Number of Iterations....: 28

                                   (scaled)                 (unscaled)
Objective...............:   4.0154203131698551e+02    1.6061681252679420e+04
Dual infeasibility......:   6.1659346409259845e-10    2.4663738563703938e-08
Constraint violation....:   1.3814727140015748e-14    2.1371793224034263e-14
Complementarity.........:   3.1920298539986363e-09    1.2768119415994545e-07
Overall NLP error.......:   3.1920298539986363e-09    1.2768119415994545e-07


Number of objective function evaluations             = 30
Number of objective gradient evaluations             = 29
Number of equality constraint evaluations            = 30
Number of inequality constraint evaluations          = 30
Number of equality constraint Jacobian evaluations   = 29
Number of inequality constraint Jacobian evaluations = 29
Number of Lagrangian Hessian evaluations             = 28
Total CPU secs in IPOPT (w/o function evaluations)   =      0.278
Total CPU secs in NLP function evaluations           =      0.230

EXIT: Optimal Solution Found.
Time to Solution........:1.250067949295044
